param np = 5;


param nr = 7;


param maxCap := 1 34 2 22 3 41 4 19 5 30;


param demand := 1 12   2 21 3 19   4 15 5 25   6 9   7 12;



param cost:
1 2 3 4 5 6 7 :=
1 3 7 5 2 8 9 1
2 5 8 3 6 1 5 4
3 5 4 9 4 5 6 9
4 4 5 7 8 2 4 6
5 5 6 7 2 5 6 6;